
--- Job bchfcnet.gms Start 02/09/22 15:14:29 34.3.0 rac355f3 WEX-WEI x86 64bit/MS Windows
--- Applying:
    C:\GAMS\34\gmsprmNT.txt
--- GAMS Parameters defined
    Input C:\Users\dekhi\Desktop\gamsworld\FCNetLib\test\bchfcnet.gms
    PageSize 0
    ScrDir C:\Users\dekhi\Desktop\gamsworld\FCNetLib\test\225a\
    SysDir C:\GAMS\34\
    LogOption 3
    ErrMsg 1
    ErrorLog 99
    IDE 1
    ResLim 3600
    LstTitleLeftAligned 1
Licensee: Eval License                                   S211214|0002AW-GEN
          Ostfalia Hochschule fuer angewandte Wissenschaften        DCE1645
          C:\Users\dekhi\Documents\GAMS\gamslice.txt
          License Admin: Mohamed Ali Dekhil, dekhil.medali@gmail.com       
          Evaluation license: Not for commercial or production use
GAMS 34.3.0   Copyright (C) 1987-2021 GAMS Development. All rights reserved
--- Starting compilation
--- bchfcnet.gms(34) 2 Mb
--- . decl.gms(15) 2 Mb
--- bchfcnet.gms(38) 2 Mb
--- . sp90x250.inc(549) 3 Mb
--- bchfcnet.gms(67) 3 Mb
--- . equs.gms(20) 3 Mb
--- bchfcnet.gms(97) 3 Mb
--- call rm -f bchout_i.gdx startcut.txt startheur.txt cuthist.gdx agap.txt rgap.txt cntfail.txt
--- bchfcnet.gms(118) 3 Mb
--- Starting execution: elapsed 0:00:00.084
--- bchfcnet.gms(607) 4 Mb
--- GDX File (execute_unload) C:\Users\dekhi\Desktop\gamsworld\FCNetLib\test\net.gdx
--- bchfcnet.gms(698) 4 Mb
--- GDXin=C:\Users\dekhi\Desktop\gamsworld\FCNetLib\test\points\sp90x250.gdx
--- GDX File (execute_load) C:\Users\dekhi\Desktop\gamsworld\FCNetLib\test\points\sp90x250.gdx
--- Generating MIP model master
--- bchfcnet.gms(702) 4 Mb
---   341 rows  501 columns  1,501 non-zeroes
---   250 discrete-columns
--- Executing CPLEX (Solvelink=2): elapsed 0:00:00.100

IBM ILOG CPLEX   34.3.0 rac355f3 Released Feb 25, 2021 WEI x86 64bit/MS Window

--- GAMS/Cplex Link licensed for continuous and discrete problems.

Reading parameter(s) from "C:\Users\dekhi\Desktop\gamsworld\FCNetLib\test\cplex.op2"
>>  mipstart 1
Finished reading from "C:\Users\dekhi\Desktop\gamsworld\FCNetLib\test\cplex.op2"

--- Space for names approximately 0.02 Mb
--- Use option 'names no' to turn use of names off
--- GMO memory 0.60 Mb (peak 0.60 Mb)
--- Dictionary memory 0.00 Mb
--- Cplex 20.1.0.0 link memory 0.01 Mb (peak 0.05 Mb)
--- Starting Cplex

Version identifier: 20.1.0.0 | 2020-11-10 | 9bedb6d68
CPXPARAM_Threads                                 1
CPXPARAM_MIP_Display                             4
CPXPARAM_TimeLimit                               3600
CPXPARAM_MIP_Tolerances_AbsMIPGap                0
CPXPARAM_MIP_Tolerances_MIPGap                   0
Generic callback                                 0x50
Processing 1 MIP starts.
MIP start 'm1' defined solution with objective 23571.0000.
1 of 1 MIP starts provided solutions.
MIP start 'm1' defined initial solution with objective 23571.0000.
Tried aggregator 3 times.
MIP Presolve eliminated 191 rows and 265 columns.
MIP Presolve added 2 rows and 0 columns.
MIP Presolve modified 240 coefficients.
Aggregator did 33 substitutions.
Reduced MIP has 118 rows, 190 columns, and 380 nonzeros.
Reduced MIP has 97 binaries, 0 generals, 0 SOSs, and 0 indicators.
Presolve time = 0.00 sec. (1.48 ticks)
Probing time = 0.00 sec. (0.03 ticks)
Tried aggregator 1 time.
Detecting symmetries...
MIP Presolve eliminated 8 rows and 12 columns.
Reduced MIP has 110 rows, 178 columns, and 362 nonzeros.
Reduced MIP has 91 binaries, 0 generals, 0 SOSs, and 0 indicators.
Presolve time = 0.02 sec. (0.30 ticks)
Probing time = 0.00 sec. (0.03 ticks)
Clique table members: 1.
MIP emphasis: balance optimality and feasibility.
MIP search method: dynamic search.
Parallel mode: none, using 1 thread.
Tried aggregator 1 time.
LP Presolve eliminated 87 rows and 129 columns.
Aggregator did 9 substitutions.
Reduced LP has 14 rows, 40 columns, and 82 nonzeros.
Presolve time = 0.00 sec. (0.10 ticks)
Initializing dual steep norms . . .

Iteration log . . .
Iteration:     1   Dual objective     =         16321.748344
Initializing dual steep norms . . .
Root relaxation solution time = 0.00 sec. (0.17 ticks)

        Nodes                                         Cuts/
   Node  Left     Objective  IInf  Best Integer    Best Bound    ItCnt     Gap

*     0+    0                        23571.0000    13601.0000            42.30%
Found incumbent of value 23571.000000 after 0.02 sec. (4.32 ticks)
      0     0    19512.8018    10    23571.0000    19512.8018       11   17.22%
      0     0    21579.2564     8    23571.0000      Cuts: 32       25    8.45%
*     0     0      integral     0    23570.9995      Cuts: 34       38    0.00%
Found incumbent of value 23570.999509 after 0.03 sec. (7.56 ticks)
      0     0        cutoff          23570.9995    23570.9995       38    0.00%
Elapsed time = 0.03 sec. (7.56 ticks, tree = 0.01 MB, solutions = 2)

Cover cuts applied:  6
Flow cuts applied:  11
Mixed integer rounding cuts applied:  4
Flow path cuts applied:  4
Gomory fractional cuts applied:  12

Root node processing (before b&c):
  Real time             =    0.03 sec. (7.59 ticks)
Sequential b&c:
  Real time             =    0.00 sec. (0.00 ticks)
                          ------------
Total (root+branch&cut) =    0.03 sec. (7.59 ticks)

--- MIP status (101): integer optimal solution.
--- Cplex Time: 0.03sec (det. 7.59 ticks)

--- Fixing integer variables and solving final LP...

Version identifier: 20.1.0.0 | 2020-11-10 | 9bedb6d68
CPXPARAM_Advance                                 2
CPXPARAM_Threads                                 1
CPXPARAM_MIP_Display                             4
CPXPARAM_TimeLimit                               3600
CPXPARAM_MIP_Tolerances_AbsMIPGap                0
CPXPARAM_MIP_Tolerances_MIPGap                   0
Tried aggregator 1 time.
LP Presolve eliminated 340 rows and 501 columns.
All rows and columns eliminated.
Presolve time = 0.00 sec. (0.18 ticks)

--- Fixed MIP status (1): optimal.
--- Cplex Time: 0.00sec (det. 0.32 ticks)


Proven optimal solution
MIP Solution:        23570.999509    (38 iterations, 0 nodes)
Final Solve:         23570.999509    (0 iterations)

Best possible:       23570.999509
Absolute gap:            0.000000
Relative gap:            0.000000

--- Reading solution for model master
*** Status: Normal completion
--- Job bchfcnet.gms Stop 02/09/22 15:14:29 elapsed 0:00:00.173
